evaluation/exploit_mitigation/broken_payloads/tsp/payload_broken_count.txt
      6 978
      6 961
      6 906
      6 895
      6 889
      6 887
      6 886
      6 885
      6 873
      6 870
      6 862
      6 859
      6 858
      6 849
      6 847
      6 843
      6 838
      6 837
      6 836
      6 818
      6 817
      6 816
      6 815
      6 810
      6 809
      6 808
      6 807
      6 805
      6 801
      6 775
      6 672
      6 655
      6 639
      6 638
      6 636
      6 631
      6 630
      6 622
      6 619
      6 605
      6 602
      6 599
      6 598
      6 597
      6 586
      6 577
      6 564
      6 558
      6 557
      6 553
      6 551
      6 549
      6 541
      6 540
      6 516
      6 515
      6 506
      6 481
      6 473
      6 472
      6 466
      6 465
      6 399
      6 363
      6 357
      6 311
      6 261
      6 253
      6 252
      6 251
      6 250
      6 245
      6 244
      6 238
      6 235
      6 222
      6 221
      6 220
      6 217
      6 216
      6 215
      6 214
      6 209
      6 205
      6 2022
      6 2002
      6 200
      6 1993
      6 1992
      6 19912
      6 19911
      6 1991
      6 199
      6 1858
      6 1857
      6 1856
      6 1855
      6 18548
      6 18547
      6 18546
      6 18545
      6 1854
      6 18538
      6 18537
      6 18536
      6 18535
      6 185318
      6 185317
      6 185316
      6 185315
      6 18531
      6 1853
      6 18528
      6 18527
      6 18526
      6 18525
      6 185228
      6 185227
      6 185226
      6 185225
      6 18522
      6 185218
      6 185217
      6 185216
      6 185215
      6 1852118
      6 1852117
      6 1852116
      6 1852115
      6 185211
      6 18521
      6 1852
      6 18518
      6 18517
      6 18516
      6 18515
      6 185138
      6 185137
      6 185136
      6 185135
      6 18513
      6 185118
      6 185117
      6 185116
      6 185115
      6 1851118
      6 1851117
      6 1851116
      6 1851115
      6 185111
      6 18511
      6 1851
      6 185
      6 1603
      6 16021
      6 1602
      6 16011
      6 1601
      6 160
      6 1591
      6 1582
      6 158
      6 1573
      6 1572
      6 15712
      6 15711
      6 1571
      6 157
      6 15346
      6 15345
      6 153446
      6 153445
      6 153443
      6 153442
      6 153441
      6 15344
      6 15343
      6 15342
      6 15341
      6 1534
      6 153346
      6 153345
      6 1533446
      6 1533445
      6 1533443
      6 1533442
      6 1533441
      6 153344
      6 153343
      6 153342
      6 153341
      6 15334
      6 1533
      6 153246
      6 153245
      6 1532446
      6 1532445
      6 1532443
      6 1532442
      6 1532441
      6 153244
      6 153243
      6 153242
      6 153241
      6 15324
      6 15321461
      6 15321460
      6 1532146
      6 15321459
      6 15321458
      6 15321457
      6 15321456
      6 15321455
      6 15321453
      6 1532145
      6 15321448
      6 15321447
      6 15321446
      6 15321445
      6 15321443
      6 15321442
      6 15321441
      6 1532144
      6 1532143
      6 1532142
      6 1532141
      6 153214
      6 15321
      6 1532
      6 153146
      6 153145
      6 1531446
      6 1531445
      6 1531443
      6 1531442
      6 1531441
      6 153144
      6 153143
      6 153142
      6 153141
      6 15314
      6 1531146
      6 1531145
      6 15311446
      6 15311445
      6 15311443
      6 15311442
      6 15311441
      6 1531144
      6 1531143
      6 1531142
      6 1531141
      6 153114
      6 15311
      6 1531
      6 153
      6 1501
      5 907
      5 890
      5 884
      5 883
      5 882
      5 881
      5 875
      5 861
      5 857
      5 856
      5 852
      5 835
      5 834
      5 833
      5 832
      5 812
      5 798
      5 650
      5 643
      5 642
      5 633
      5 625
      5 624
      5 611
      5 608
      5 593
      5 590
      5 584
      5 566
      5 563
      5 556
      5 552
      5 550
      5 366
      5 355
      5 354
      5 257
      5 242
      5 210
      5 2001
      5 1611
      5 161
      5 159
      5 1581
      4 958
      4 957
      4 905
      4 902
      4 900
      4 892
      4 877
      4 876
      4 872
      4 871
      4 869
      4 868
      4 863
      4 851
      4 850
      4 846
      4 845
      4 844
      4 831
      4 829
      4 828
      4 827
      4 825
      4 823
      4 822
      4 811
      4 806
      4 804
      4 799
      4 770
      4 765
      4 758
      4 756
      4 752
      4 741
      4 740
      4 685
      4 684
      4 683
      4 621
      4 607
      4 606
      4 604
      4 589
      4 587
      4 585
      4 578
      4 576
      4 575
      4 574
      4 571
      4 565
      4 555
      4 547
      4 546
      4 545
      4 544
      4 543
      4 517
      4 505
      4 491
      4 483
      4 477
      4 476
      4 368
      4 367
      4 365
      4 361
      4 358
      4 353
      4 289
      4 259
      4 256
      4 249
      4 248
      4 239
      4 237
      4 236
      4 230
      4 229
      4 228
      4 226
      4 225
      4 224
      4 223
      4 219
      4 218
      4 206
      4 204
      4 202
      4 1981
      4 1971
      4 1911
      4 1901
      4 1891
      4 1881
      4 1871
      4 1791
      4 1781
      4 1771
      4 1761
      4 1751
      4 1671
      4 1661
      4 1651
      4 1641
      4 1631
      4 162
      4 1592
      4 1561
      4 1541
      4 1511
      4 150
      3 542
      3 501
      3 198
      3 197
      3 191
      3 190
      3 189
      3 188
      3 187
      3 179
      3 178
      3 177
      3 176
      3 175
      3 167
      3 166
      3 165
      3 164
      3 163
      3 156
      3 154
      3 151
      2 559
      2 227
      2 2011
      2 1921
      2 18613
      2 186121
      2 18612
      2 186111
      2 18611
      2 1861
      2 1801
      2 1681
      1 634
      1 560
      1 2021
      1 15321454
